(set-logic BV) (define-fun origCir ((n165 Bool) (n325 Bool) (n254 Bool) (n207 Bool) (i40 Bool)) Bool (xor (and (xor n325 (not (and n254 n207))) n165) i40)) (synth-fun skel ((n165 Bool) (n325 Bool) (n254 Bool) (n207 Bool) (i40 Bool)) Bool) (declare-var n165 Bool) (declare-var n325 Bool) (declare-var n254 Bool) (declare-var n207 Bool) (declare-var i40 Bool) (constraint (= (origCir n165 n325 n254 n207 i40) (skel n165 n325 n254 n207 i40))) (check-synth)
